
Gurobi 11.0.3 (linux64) logging started Thu Nov 21 13:29:20 2024

Set parameter LogFile to value "/home/yihong/Coding/OR_SUC/SUC_results_bigM100000_thread4/case24_ieee_rts_theta0.1_epsilon0.05_gurobi_seed210000_num_gen100_N_WDR100_load_scaling_factor1_proposed_T8quadra_cost.txt"
Set parameter TimeLimit to value 3600
Gurobi Optimizer version 11.0.3 build v11.0.3rc0 (linux64 - "Ubuntu 20.04.6 LTS")

CPU model: AMD EPYC 7532 32-Core Processor, instruction set [SSE2|AVX|AVX2]
Thread count: 64 physical cores, 128 logical processors, using up to 4 threads

Optimize a model with 18854 rows, 10021 columns and 437434 nonzeros
Model fingerprint: 0xac5e5f2d
Model has 800 quadratic constraints
Variable types: 9221 continuous, 800 integer (800 binary)
Coefficient statistics:
  Matrix range     [3e-04, 2e+03]
  QMatrix range    [2e-03, 8e-03]
  QLMatrix range   [5e-02, 6e+01]
  Objective range  [1e+00, 1e+00]
  Bounds range     [1e+00, 1e+00]
  RHS range        [1e+00, 9e+03]
Presolve removed 15546 rows and 4391 columns
Presolve time: 0.10s
Presolved: 3308 rows, 5630 columns, 19090 nonzeros
Presolved model has 800 quadratic constraint(s)
Variable types: 4830 continuous, 800 integer (800 binary)

Root relaxation: objective 1.159375e+04, 2607 iterations, 0.04 seconds (0.06 work units)

    Nodes    |    Current Node    |     Objective Bounds      |     Work
 Expl Unexpl |  Obj  Depth IntInf | Incumbent    BestBd   Gap | It/Node Time

     0     0 11593.7549    0    -          - 11593.7549      -     -    0s
     0     0 115001.778    0  279          - 115001.778      -     -    0s
     0     0 217954.933    0  112          - 217954.933      -     -    0s
     0     0 217958.801    0  112          - 217958.801      -     -    0s
     0     0 218045.688    0   41          - 218045.688      -     -    0s
     0     0 218050.187    0   41          - 218050.187      -     -    0s
     0     0 218050.187    0   41          - 218050.187      -     -    0s
     0     0 218050.187    0   41          - 218050.187      -     -    0s
     0     2 218050.187    0   41          - 218050.187      -     -    1s
H  386   373                    218234.62456 218052.266  0.08%  13.9    1s
*  386   373              79    218234.62456 218052.266  0.08%  13.9    1s

Cutting planes:
  Gomory: 118
  Implied bound: 201
  MIR: 70
  Flow cover: 255
  RLT: 71

Explored 424 nodes (12585 simplex iterations) in 2.13 seconds (2.53 work units)
Thread count was 4 (of 128 available processors)

Solution count 2: 218235 218235 

Optimal solution found (tolerance 1.00e-03)
Warning: max constraint violation (2.2772e-07) exceeds tolerance
Best objective 2.182346245653e+05, best bound 2.180522656166e+05, gap 0.0836%
